SumColouring/JavaBacktracker/RandomInstances/30_0.20_2.col
c File: instances/30_0.20_2.col
c
c Description: Random graph of size 30 vertices and P(0.2) of edges between any two vertices.
p col 30 435
e 1 8
e 1 12
e 1 15
e 1 19
e 1 24
e 1 25
e 1 28
e 1 30
e 2 4
e 2 9
e 2 14
e 2 17
e 2 29
e 3 7
e 3 26
e 3 27
e 4 8
e 4 22
e 4 23
e 4 27
e 4 28
e 5 7
e 5 11
e 5 13
e 5 18
e 5 21
e 5 22
e 6 9
e 6 10
e 6 14
e 6 19
e 6 22
e 6 26
e 7 18
e 7 19
e 7 29
e 7 30
e 8 12
e 8 21
e 8 23
e 8 29
e 9 10
e 9 14
e 9 25
e 9 28
e 10 12
e 10 17
e 10 20
e 10 23
e 10 24
e 10 26
e 11 13
e 11 14
e 11 20
e 11 28
e 12 16
e 12 17
e 13 14
e 13 16
e 13 18
e 13 22
e 13 23
e 13 24
e 13 26
e 14 20
e 14 25
e 15 30
e 16 22
e 16 24
e 17 24
e 17 25
e 17 30
e 18 21
e 18 23
e 18 28
e 19 20
e 19 29
e 19 30
e 20 26
e 20 28
e 20 29
e 21 28
e 23 29
e 24 26
e 24 30
e 26 28